Medium-instances_NetworkFacilityLocation/2023-03-27_20hr-25min-09sec/Nodes30_Arcs35_LocNodes22/Formulation-2Instance-2.lp
\ Model LocPrice
\ LP format - for model browsing. Use MPS format to capture full model detail.
Maximize
  - 197 x[2] - 183 x[6] - 199 x[7] - 180 x[8] - 186 x[9] - 168 x[10]
   - 190 x[11] - 155 x[12] - 157 x[13] - 168 x[17] - 185 x[18] - 174 x[19]
   - 192 x[20] - 197 x[21] - 170 x[22] - 171 x[23] - 177 x[25] - 182 x[26]
   - 173 x[27] - 180 x[28] - 197 x[29] - 186 x[30] - 3.804169053875532 Q[2]
   - 3.001839578221731 Q[6] - 3.840369069386261 Q[7]
   - 4.26287221226458 Q[8] - 4.869922188373301 Q[9]
   - 4.847353169515469 Q[10] - 3.654699626648195 Q[11]
   - 4.977722051238039 Q[12] - 3.375349880469038 Q[13]
   - 4.646504036072063 Q[17] - 3.314518974168089 Q[18]
   - 3.810197305722319 Q[19] - 3.146946623614555 Q[20]
   - 4.716077862396035 Q[21] - 4.657596141953045 Q[22]
   - 3.279578597085433 Q[23] - 4.054212953114165 Q[25]
   - 3.516282993832613 Q[26] - 3.983551400037673 Q[27]
   - 4.106412011898498 Q[28] - 3.212524102397515 Q[29]
   - 4.728751126202265 Q[30] - 1.048511423018494 f[2,1]
   - 1.099214396719147 f[3,2] - 1.250225199434307 f[4,3]
   - 2.041025349138392 f[5,1] - 2.355821856626435 f[6,5]
   - 2.822874246928783 f[7,3] - 1.127100124439135 f[8,4]
   - 2.120322613421769 f[9,6] - 1.02490202992251 f[10,3]
   - 2.472005395928528 f[11,10] - 0.6919467112165149 f[12,1]
   - 2.613041135523648 f[13,4] - 1.515315759301116 f[14,5]
   - 2.176032095006393 f[15,8] - 1.604979044243124 f[16,7]
   - 0.9483640478568586 f[17,3] - 1.48290569771536 f[18,1]
   - 0.1513512409740628 f[19,1] - 0.128977694713841 f[20,1]
   - 1.589889979208189 f[21,3] - 1.431523427708447 f[22,21]
   - 2.499411978549335 f[23,5] - 0.0603678537376826 f[24,16]
   - 1.670651432095008 f[25,19] - 1.471911313045447 f[26,6]
   - 1.793991412651973 f[27,8] - 2.188735872383174 f[28,12]
   - 1.574221826409889 f[29,8] - 1.689114661069115 f[30,29]
   - 1.255722157648324 f[29,6] - 0.1799924590803075 f[24,11]
   - 1.624705922905535 f[16,9] - 0.4677573213683264 f[23,7]
   - 2.852329764540266 f[28,23] - 2.403341498970692 f[28,4] + 1363 D[3]
   + 1387 D[4] + 1350 D[5] + 1390 D[6] + 1338 D[7] + 1332 D[8] + 1364 D[12]
   + 1492 D[15] + 1318 D[17] + 1409 D[21] + 1487 D[23] + 1392 D[24]
   + 1373 D[25] + 1411 D[28] + 1335 D[29] - 1.491783879608467 S[2]
   - 1.615206998910506 S[6] - 1.248127215052858 S[8]
   - 1.55261342911153 S[10] - 1.672386818411279 S[14]
   - 1.191112780902738 S[16] - 1.990367080563936 S[17]
   - 1.746459479329557 S[21] - 1.955331266801879 S[22]
   - 1.293946371188254 S[23] - 1.443492876594826 S[24]
   - 1.261438554478015 S[25] - 1.046691615371925 S[26]
   - 1.016676838270571 S[28] - 1.246747841159748 S[29] + [
   - 1.114785276137248 f[2,1] ^2 - 1.788493286297493 f[3,2] ^2
   - 0.2290343868629949 f[4,3] ^2 - 0.0109808256329513 f[5,1] ^2
   - 0.780638086387945 f[6,5] ^2 - 1.366700736473363 f[7,3] ^2
   - 3.712453684058295 f[8,4] ^2 - 3.55891315403819 f[9,6] ^2
   - 1.922004066584586 f[10,3] ^2 - 1.819039274330325 f[11,10] ^2
   - 2.667972175415523 f[12,1] ^2 - 3.435019609839416 f[13,4] ^2
   - 1.349190022994796 f[14,5] ^2 - 3.174618111034624 f[15,8] ^2
   - 1.595949012352175 f[16,7] ^2 - 2.37621552955083 f[17,3] ^2
   - 2.949867931160908 f[18,1] ^2 - 2.005428817668505 f[19,1] ^2
   - 2.763103084826798 f[20,1] ^2 - 2.789253929435204 f[21,3] ^2
   - 0.0228507597116727 f[22,21] ^2 - 0.1562621330232576 f[23,5] ^2
   - 0.5961532432621981 f[24,16] ^2 - 0.8545405373969301 f[25,19] ^2
   - 0.8128584283781275 f[26,6] ^2 - 0.1958623270117985 f[27,8] ^2
   - 0.8688456089991194 f[28,12] ^2 - 2.403789477601188 f[29,8] ^2
   - 3.544300645721413 f[30,29] ^2 - 3.518475257855243 f[29,6] ^2
   - 1.44571054118209 f[24,11] ^2 - 0.249377441964385 f[16,9] ^2
   - 0.1004333572919895 f[23,7] ^2 - 1.493312877317511 f[28,23] ^2
   - 1.639313960193497 f[28,4] ^2 - 6.000002720251484 D[3] ^2
   - 6.120855016897357 D[4] ^2 - 6.429302916406334 D[5] ^2
   - 6.835307305082988 D[6] ^2 - 7.203140462479235 D[7] ^2
   - 7.962061234782089 D[8] ^2 - 7.780954419395622 D[12] ^2
   - 6.484508164112873 D[15] ^2 - 7.223090474635309 D[17] ^2
   - 7.843083660975808 D[21] ^2 - 6.203204695827539 D[23] ^2
   - 7.708077870773094 D[24] ^2 - 6.792141388503007 D[25] ^2
   - 7.563374871917301 D[28] ^2 - 6.645194343387404 D[29] ^2
   - 1.722525064500551 S[2] ^2 - 0.3273883212005047 S[6] ^2
   - 1.379245200378132 S[8] ^2 - 0.4987637807835821 S[10] ^2
   - 0.1311658733146763 S[14] ^2 - 0.3849731248294983 S[16] ^2
   - 1.355852686140893 S[17] ^2 - 1.003312409567052 S[21] ^2
   - 1.098062082221045 S[22] ^2 - 0.906328556677201 S[23] ^2
   - 0.5486958534966824 S[24] ^2 - 0.9766956620929128 S[25] ^2
   - 1.844892254578072 S[26] ^2 - 0.4029898561629635 S[28] ^2
   - 1.465468210725974 S[29] ^2 ] / 2 
Subject To
 R0: Q[2] + Q[6] + Q[7] + Q[8] + Q[9] + Q[10] + Q[11] + Q[12] + Q[13]
   + Q[17] + Q[18] + Q[19] + Q[20] + Q[21] + Q[22] + Q[23] + Q[25] + Q[26]
   + Q[27] + Q[28] + Q[29] + Q[30] <= 1925
 R1: - 110 x[2] + Q[2] <= 0
 R2: - 116 x[6] + Q[6] <= 0
 R3: - 169 x[7] + Q[7] <= 0
 R4: - 184 x[8] + Q[8] <= 0
 R5: - 163 x[9] + Q[9] <= 0
 R6: - 193 x[10] + Q[10] <= 0
 R7: - 137 x[11] + Q[11] <= 0
 R8: - 132 x[12] + Q[12] <= 0
 R9: - 179 x[13] + Q[13] <= 0
 R10: - 104 x[17] + Q[17] <= 0
 R11: - 119 x[18] + Q[18] <= 0
 R12: - 119 x[19] + Q[19] <= 0
 R13: - 139 x[20] + Q[20] <= 0
 R14: - 115 x[21] + Q[21] <= 0
 R15: - 179 x[22] + Q[22] <= 0
 R16: - 184 x[23] + Q[23] <= 0
 R17: - 138 x[25] + Q[25] <= 0
 R18: - 102 x[26] + Q[26] <= 0
 R19: - 171 x[27] + Q[27] <= 0
 R20: - 110 x[28] + Q[28] <= 0
 R21: - 161 x[29] + Q[29] <= 0
 R22: - 117 x[30] + Q[30] <= 0
 node[9]: - Q[9] + f[9,6] - f[16,9] = 0
 node[11]: - Q[11] + f[11,10] - f[24,11] = 0
 node[13]: - Q[13] + f[13,4] = 0
 node[18]: - Q[18] + f[18,1] = 0
 node[19]: - Q[19] + f[19,1] - f[25,19] = 0
 node[20]: - Q[20] + f[20,1] = 0
 node[27]: - Q[27] + f[27,8] = 0
 node[30]: - Q[30] + f[30,29] = 0
 node[26]: - Q[26] + f[26,6] - S[26] = 0
 node[2]: - Q[2] + f[2,1] - f[3,2] - S[2] = 0
 node[10]: - Q[10] + f[10,3] - f[11,10] - S[10] = 0
 node[22]: - Q[22] + f[22,21] - S[22] = 0
 node[12]: - Q[12] + f[12,1] - f[28,12] + D[12] = 0
 node[7]: - Q[7] + f[7,3] - f[16,7] - f[23,7] + D[7] = 0
 node[6]: - Q[6] + f[6,5] - f[9,6] - f[26,6] - f[29,6] + D[6] - S[6] = 0
 node[8]: - Q[8] + f[8,4] - f[15,8] - f[27,8] - f[29,8] + D[8] - S[8] = 0
 node[17]: - Q[17] + f[17,3] + D[17] - S[17] = 0
 node[21]: - Q[21] + f[21,3] - f[22,21] + D[21] - S[21] = 0
 node[23]: - Q[23] + f[23,5] + f[23,7] - f[28,23] + D[23] - S[23] = 0
 node[25]: - Q[25] + f[25,19] + D[25] - S[25] = 0
 node[28]: - Q[28] + f[28,12] + f[28,23] + f[28,4] + D[28] - S[28] = 0
 node[29]: - Q[29] + f[29,8] - f[30,29] + f[29,6] + D[29] - S[29] = 0
 node[1]: - f[2,1] - f[5,1] - f[12,1] - f[18,1] - f[19,1] - f[20,1] = 0
 node[16]: f[16,7] - f[24,16] + f[16,9] - S[16] = 0
 node[14]: f[14,5] - S[14] = 0
 node[3]: f[3,2] - f[4,3] - f[7,3] - f[10,3] - f[17,3] - f[21,3] + D[3]
   = 0
 node[4]: f[4,3] - f[8,4] - f[13,4] - f[28,4] + D[4] = 0
 node[5]: f[5,1] - f[6,5] - f[14,5] - f[23,5] + D[5] = 0
 node[15]: f[15,8] + D[15] = 0
 node[24]: f[24,16] + f[24,11] + D[24] - S[24] = 0
 Cost_Flow[2,1]: - pi[1] + pi[2] + 0.557392638068624 f[2,1] - mu_f[2,1]
   = -1.048511423018494
 Cost_Flow[3,2]: - pi[2] + pi[3] + 0.8942466431487466 f[3,2] - mu_f[3,2]
   = -1.099214396719147
 Cost_Flow[4,3]: - pi[3] + pi[4] + 0.1145171934314975 f[4,3] - mu_f[4,3]
   = -1.250225199434307
 Cost_Flow[5,1]: - pi[1] + pi[5] + 0.00549041281647566 f[5,1] - mu_f[5,1]
   = -2.041025349138392
 Cost_Flow[6,5]: - pi[5] + pi[6] + 0.3903190431939725 f[6,5] - mu_f[6,5]
   = -2.355821856626435
 Cost_Flow[7,3]: - pi[3] + pi[7] + 0.6833503682366813 f[7,3] - mu_f[7,3]
   = -2.822874246928783
 Cost_Flow[8,4]: - pi[4] + pi[8] + 1.856226842029147 f[8,4] - mu_f[8,4]
   = -1.127100124439135
 Cost_Flow[9,6]: - pi[6] + pi[9] + 1.779456577019095 f[9,6] - mu_f[9,6]
   = -2.120322613421769
 Cost_Flow[10,3]: - pi[3] + pi[10] + 0.9610020332922928 f[10,3]
   - mu_f[10,3] = -1.02490202992251
 Cost_Flow[11,10]: - pi[10] + pi[11] + 0.9095196371651626 f[11,10]
   - mu_f[11,10] = -2.472005395928528
 Cost_Flow[12,1]: - pi[1] + pi[12] + 1.333986087707761 f[12,1] - mu_f[12,1]
   = -0.6919467112165149
 Cost_Flow[13,4]: - pi[4] + pi[13] + 1.717509804919708 f[13,4] - mu_f[13,4]
   = -2.613041135523648
 Cost_Flow[14,5]: - pi[5] + pi[14] + 0.674595011497398 f[14,5] - mu_f[14,5]
   = -1.515315759301116
 Cost_Flow[15,8]: - pi[8] + pi[15] + 1.587309055517312 f[15,8] - mu_f[15,8]
   = -2.176032095006393
 Cost_Flow[16,7]: - pi[7] + pi[16] + 0.7979745061760877 f[16,7]
   - mu_f[16,7] = -1.604979044243124
 Cost_Flow[17,3]: - pi[3] + pi[17] + 1.188107764775415 f[17,3] - mu_f[17,3]
   = -0.9483640478568586
 Cost_Flow[18,1]: - pi[1] + pi[18] + 1.474933965580454 f[18,1] - mu_f[18,1]
   = -1.48290569771536
 Cost_Flow[19,1]: - pi[1] + pi[19] + 1.002714408834252 f[19,1] - mu_f[19,1]
   = -0.1513512409740628
 Cost_Flow[20,1]: - pi[1] + pi[20] + 1.381551542413399 f[20,1] - mu_f[20,1]
   = -0.128977694713841
 Cost_Flow[21,3]: - pi[3] + pi[21] + 1.394626964717602 f[21,3] - mu_f[21,3]
   = -1.589889979208189
 Cost_Flow[22,21]: - pi[21] + pi[22] + 0.0114253798558364 f[22,21]
   - mu_f[22,21] = -1.431523427708447
 Cost_Flow[23,5]: - pi[5] + pi[23] + 0.0781310665116288 f[23,5]
   - mu_f[23,5] = -2.499411978549335
 Cost_Flow[24,16]: - pi[16] + pi[24] + 0.298076621631099 f[24,16]
   - mu_f[24,16] = -0.0603678537376826
 Cost_Flow[25,19]: - pi[19] + pi[25] + 0.4272702686984651 f[25,19]
   - mu_f[25,19] = -1.670651432095008
 Cost_Flow[26,6]: - pi[6] + pi[26] + 0.4064292141890637 f[26,6]
   - mu_f[26,6] = -1.471911313045447
 Cost_Flow[27,8]: - pi[8] + pi[27] + 0.0979311635058993 f[27,8]
   - mu_f[27,8] = -1.793991412651973
 Cost_Flow[28,12]: - pi[12] + pi[28] + 0.4344228044995597 f[28,12]
   - mu_f[28,12] = -2.188735872383174
 Cost_Flow[29,8]: - pi[8] + pi[29] + 1.201894738800594 f[29,8] - mu_f[29,8]
   = -1.574221826409889
 Cost_Flow[30,29]: - pi[29] + pi[30] + 1.772150322860706 f[30,29]
   - mu_f[30,29] = -1.689114661069115
 Cost_Flow[29,6]: - pi[6] + pi[29] + 1.759237628927621 f[29,6] - mu_f[29,6]
   = -1.255722157648324
 Cost_Flow[24,11]: - pi[11] + pi[24] + 0.7228552705910452 f[24,11]
   - mu_f[24,11] = -0.1799924590803075
 Cost_Flow[16,9]: - pi[9] + pi[16] + 0.1246887209821925 f[16,9]
   - mu_f[16,9] = -1.624705922905535
 Cost_Flow[23,7]: - pi[7] + pi[23] + 0.0502166786459948 f[23,7]
   - mu_f[23,7] = -0.4677573213683264
 Cost_Flow[28,23]: - pi[23] + pi[28] + 0.7466564386587555 f[28,23]
   - mu_f[28,23] = -2.852329764540266
 Cost_Flow[28,4]: - pi[4] + pi[28] + 0.8196569800967486 f[28,4]
   - mu_f[28,4] = -2.403341498970692
 Cost_Demand[3]: pi[3] + 3.000001360125742 D[3] - mu_D[3] = 1363
 Cost_Demand[4]: pi[4] + 3.060427508448679 D[4] - mu_D[4] = 1387
 Cost_Demand[5]: pi[5] + 3.214651458203167 D[5] - mu_D[5] = 1350
 Cost_Demand[6]: pi[6] + 3.417653652541494 D[6] - mu_D[6] = 1390
 Cost_Demand[7]: pi[7] + 3.601570231239617 D[7] - mu_D[7] = 1338
 Cost_Demand[8]: pi[8] + 3.981030617391045 D[8] - mu_D[8] = 1332
 Cost_Demand[12]: pi[12] + 3.890477209697811 D[12] - mu_D[12] = 1364
 Cost_Demand[15]: pi[15] + 3.242254082056436 D[15] - mu_D[15] = 1492
 Cost_Demand[17]: pi[17] + 3.611545237317654 D[17] - mu_D[17] = 1318
 Cost_Demand[21]: pi[21] + 3.921541830487904 D[21] - mu_D[21] = 1409
 Cost_Demand[23]: pi[23] + 3.10160234791377 D[23] - mu_D[23] = 1487
 Cost_Demand[24]: pi[24] + 3.854038935386547 D[24] - mu_D[24] = 1392
 Cost_Demand[25]: pi[25] + 3.396070694251503 D[25] - mu_D[25] = 1373
 Cost_Demand[28]: pi[28] + 3.78168743595865 D[28] - mu_D[28] = 1411
 Cost_Demand[29]: pi[29] + 3.322597171693702 D[29] - mu_D[29] = 1335
 Cost_Supply[2]: - pi[2] + 0.8612625322502753 S[2] - mu_S[2]
   = -1.491783879608467
 Cost_Supply[6]: - pi[6] + 0.1636941606002523 S[6] - mu_S[6]
   = -1.615206998910506
 Cost_Supply[8]: - pi[8] + 0.689622600189066 S[8] - mu_S[8]
   = -1.248127215052858
 Cost_Supply[10]: - pi[10] + 0.249381890391791 S[10] - mu_S[10]
   = -1.55261342911153
 Cost_Supply[14]: - pi[14] + 0.0655829366573382 S[14] - mu_S[14]
   = -1.672386818411279
 Cost_Supply[16]: - pi[16] + 0.1924865624147492 S[16] - mu_S[16]
   = -1.191112780902738
 Cost_Supply[17]: - pi[17] + 0.6779263430704467 S[17] - mu_S[17]
   = -1.990367080563936
 Cost_Supply[21]: - pi[21] + 0.501656204783526 S[21] - mu_S[21]
   = -1.746459479329557
 Cost_Supply[22]: - pi[22] + 0.5490310411105226 S[22] - mu_S[22]
   = -1.955331266801879
 Cost_Supply[23]: - pi[23] + 0.4531642783386005 S[23] - mu_S[23]
   = -1.293946371188254
 Cost_Supply[24]: - pi[24] + 0.2743479267483412 S[24] - mu_S[24]
   = -1.443492876594826
 Cost_Supply[25]: - pi[25] + 0.4883478310464564 S[25] - mu_S[25]
   = -1.261438554478015
 Cost_Supply[26]: - pi[26] + 0.9224461272890361 S[26] - mu_S[26]
   = -1.046691615371925
 Cost_Supply[28]: - pi[28] + 0.2014949280814817 S[28] - mu_S[28]
   = -1.016676838270571
 Cost_Supply[29]: - pi[29] + 0.7327341053629872 S[29] - mu_S[29]
   = -1.246747841159748
Bounds
Binaries
 x[2] x[6] x[7] x[8] x[9] x[10] x[11] x[12] x[13] x[17] x[18] x[19] x[20]
 x[21] x[22] x[23] x[25] x[26] x[27] x[28] x[29] x[30]
SOS
 s0:  S1 :: f[2,1]:1 mu_f[2,1]:2
 s1:  S1 :: f[3,2]:1 mu_f[3,2]:2
 s2:  S1 :: f[4,3]:1 mu_f[4,3]:2
 s3:  S1 :: f[5,1]:1 mu_f[5,1]:2
 s4:  S1 :: f[6,5]:1 mu_f[6,5]:2
 s5:  S1 :: f[7,3]:1 mu_f[7,3]:2
 s6:  S1 :: f[8,4]:1 mu_f[8,4]:2
 s7:  S1 :: f[9,6]:1 mu_f[9,6]:2
 s8:  S1 :: f[10,3]:1 mu_f[10,3]:2
 s9:  S1 :: f[11,10]:1 mu_f[11,10]:2
 s10:  S1 :: f[12,1]:1 mu_f[12,1]:2
 s11:  S1 :: f[13,4]:1 mu_f[13,4]:2
 s12:  S1 :: f[14,5]:1 mu_f[14,5]:2
 s13:  S1 :: f[15,8]:1 mu_f[15,8]:2
 s14:  S1 :: f[16,7]:1 mu_f[16,7]:2
 s15:  S1 :: f[17,3]:1 mu_f[17,3]:2
 s16:  S1 :: f[18,1]:1 mu_f[18,1]:2
 s17:  S1 :: f[19,1]:1 mu_f[19,1]:2
 s18:  S1 :: f[20,1]:1 mu_f[20,1]:2
 s19:  S1 :: f[21,3]:1 mu_f[21,3]:2
 s20:  S1 :: f[22,21]:1 mu_f[22,21]:2
 s21:  S1 :: f[23,5]:1 mu_f[23,5]:2
 s22:  S1 :: f[24,16]:1 mu_f[24,16]:2
 s23:  S1 :: f[25,19]:1 mu_f[25,19]:2
 s24:  S1 :: f[26,6]:1 mu_f[26,6]:2
 s25:  S1 :: f[27,8]:1 mu_f[27,8]:2
 s26:  S1 :: f[28,12]:1 mu_f[28,12]:2
 s27:  S1 :: f[29,8]:1 mu_f[29,8]:2
 s28:  S1 :: f[30,29]:1 mu_f[30,29]:2
 s29:  S1 :: f[29,6]:1 mu_f[29,6]:2
 s30:  S1 :: f[24,11]:1 mu_f[24,11]:2
 s31:  S1 :: f[16,9]:1 mu_f[16,9]:2
 s32:  S1 :: f[23,7]:1 mu_f[23,7]:2
 s33:  S1 :: f[28,23]:1 mu_f[28,23]:2
 s34:  S1 :: f[28,4]:1 mu_f[28,4]:2
 s35:  S1 :: D[3]:1 mu_D[3]:2
 s36:  S1 :: D[4]:1 mu_D[4]:2
 s37:  S1 :: D[5]:1 mu_D[5]:2
 s38:  S1 :: D[6]:1 mu_D[6]:2
 s39:  S1 :: D[7]:1 mu_D[7]:2
 s40:  S1 :: D[8]:1 mu_D[8]:2
 s41:  S1 :: D[12]:1 mu_D[12]:2
 s42:  S1 :: D[15]:1 mu_D[15]:2
 s43:  S1 :: D[17]:1 mu_D[17]:2
 s44:  S1 :: D[21]:1 mu_D[21]:2
 s45:  S1 :: D[23]:1 mu_D[23]:2
 s46:  S1 :: D[24]:1 mu_D[24]:2
 s47:  S1 :: D[25]:1 mu_D[25]:2
 s48:  S1 :: D[28]:1 mu_D[28]:2
 s49:  S1 :: D[29]:1 mu_D[29]:2
 s50:  S1 :: S[2]:1 mu_S[2]:2
 s51:  S1 :: S[6]:1 mu_S[6]:2
 s52:  S1 :: S[8]:1 mu_S[8]:2
 s53:  S1 :: S[10]:1 mu_S[10]:2
 s54:  S1 :: S[14]:1 mu_S[14]:2
 s55:  S1 :: S[16]:1 mu_S[16]:2
 s56:  S1 :: S[17]:1 mu_S[17]:2
 s57:  S1 :: S[21]:1 mu_S[21]:2
 s58:  S1 :: S[22]:1 mu_S[22]:2
 s59:  S1 :: S[23]:1 mu_S[23]:2
 s60:  S1 :: S[24]:1 mu_S[24]:2
 s61:  S1 :: S[25]:1 mu_S[25]:2
 s62:  S1 :: S[26]:1 mu_S[26]:2
 s63:  S1 :: S[28]:1 mu_S[28]:2
 s64:  S1 :: S[29]:1 mu_S[29]:2
End
