Medium-instances_NetworkFacilityLocation/2023-03-27_20hr-25min-09sec/Nodes30_Arcs35_LocNodes22/Formulation-2Instance-2.log

Gurobi 9.5.2 (win64) logging started Mon Mar 27 20:26:57 2023

Set parameter LogFile to value "2023-03-27_20hr-25min-09sec/Nodes30_Arcs35_LocNodes22/Formulation-2Instance-2.log"
Set parameter TimeLimit to value 600
Set parameter IntFeasTol to value 1e-09
Set parameter DualReductions to value 0
Set parameter NonConvex to value 2
Gurobi Optimizer version 9.5.2 build v9.5.2rc0 (win64)
Thread count: 4 physical cores, 8 logical processors, using up to 8 threads
Optimize a model with 118 rows, 204 columns and 418 nonzeros
Model fingerprint: 0x9f1d9753
Model has 65 quadratic objective terms
Model has 65 SOS constraints
Variable types: 182 continuous, 22 integer (22 binary)
Coefficient statistics:
  Matrix range     [5e-03, 2e+02]
  Objective range  [6e-02, 1e+03]
  QObjective range [1e-02, 8e+00]
  Bounds range     [1e+00, 1e+00]
  RHS range        [6e-02, 2e+03]
Presolve removed 15 rows and 20 columns
Presolve time: 0.03s
Presolved: 103 rows, 184 columns, 361 nonzeros
Presolved model has 54 SOS constraint(s)
Presolved model has 54 quadratic objective terms
Variable types: 162 continuous, 22 integer (22 binary)

Root relaxation: objective 2.043047e+05, 236 iterations, 0.00 seconds (0.00 work units)

    Nodes    |    Current Node    |     Objective Bounds      |     Work
 Expl Unexpl |  Obj  Depth IntInf | Incumbent    BestBd   Gap | It/Node Time

     0     0 204304.715    0    8          - 204304.715      -     -    0s
H    0     0                    191958.20875 204304.715  6.43%     -    0s
     0     0 204304.715    0    9 191958.209 204304.715  6.43%     -    0s
H    0     0                    192049.61761 204304.715  6.38%     -    0s
H    0     0                    196336.46046 204304.715  4.06%     -    0s
H    0     0                    196733.58347 204304.715  3.85%     -    0s
H    0     0                    197171.47628 204304.715  3.62%     -    0s
     0     0 203422.221    0    8 197171.476 203422.221  3.17%     -    0s
     0     0 203422.221    0    8 197171.476 203422.221  3.17%     -    0s
H    0     0                    197345.84606 203422.221  3.08%     -    0s
     0     0 203422.221    0   17 197345.846 203422.221  3.08%     -    0s
     0     0 203422.221    0   20 197345.846 203422.221  3.08%     -    0s
H    0     0                    197350.11944 203422.221  3.08%     -    0s
     0     0 203422.221    0   20 197350.119 203422.221  3.08%     -    0s
     0     0 203422.221    0   20 197350.119 203422.221  3.08%     -    0s
     0     0 203422.221    0   21 197350.119 203422.221  3.08%     -    0s
     0     0 203422.221    0   21 197350.119 203422.221  3.08%     -    0s
     0     0 203422.221    0   21 197350.119 203422.221  3.08%     -    0s
H    0     0                    201910.37939 203422.221  0.75%     -    0s
     0     0 202556.511    0    9 201910.379 202556.511  0.32%     -    0s
     0     0 202553.407    0    7 201910.379 202553.407  0.32%     -    0s
H    0     0                    201911.52632 202553.407  0.32%     -    0s
H    0     0                    201913.88086 202553.407  0.32%     -    0s
H    0     0                    201914.78192 202233.303  0.16%     -    0s
     0     0 202233.303    0    7 201914.782 202233.303  0.16%     -    0s
H    0     0                    201915.23160 202233.303  0.16%     -    0s
     0     0 201915.498    0    7 201915.232 201915.498  0.00%     -    0s

Cutting planes:
  Cover: 1
  Implied bound: 4
  MIR: 2
  Flow cover: 2

Explored 1 nodes (704 simplex iterations) in 0.28 seconds (0.03 work units)
Thread count was 8 (of 8 available processors)

Solution count 9: 201915 201910 197350 ... 191958

Optimal solution found (tolerance 1.00e-04)
Best objective 2.019152316034e+05, best bound 2.019154979147e+05, gap 0.0001%

User-callback calls 413, time in user-callback 0.01 sec
